data;

set N:= 0 1 2;
set M:= 3 4;
set F:= f0;

param p:=
0 3.0000
1 5.0000
2 2.0000
3 6.0000
4 2.0000
;

param b:
0 1 2 3 4 :=
0 0.000000 6.000000 5.000000 0.000000 1000000 
1 6.000000 0.000000 3.000000 0.000000 1000000 
2 5.000000 3.000000 0.000000 0.000000 1000000 
3 0.000000 0.000000 0.000000 0.000000 0.000000 
4 1000000 1000000 1000000 0.000000 0.000000 
;

param alpha:
0 1 2 3 4 :=
0 0.0000 6.0000 5.0000 0.0000 1000000.0000 
1 6.0000 0.0000 3.0000 0.0000 1000000.0000 
2 5.0000 3.0000 0.0000 0.0000 1000000.0000 
3 0.0000 0.0000 0.0000 0.0000 0.0000 
4 1000000.0000 1000000.0000 1000000.0000 0.0000 0.0000 
;

param beta:=
0 3.0000
1 5.0000
2 2.0000
3 6.0000
4 2.0000
;

param fs:=
f0 0
;

param fe:=
f0 1
;

param fd:=
f0 4.0000
;

end;

